NAME: data16
TYPE: TSP
COMMENT: 52 locations in Berlin (Groetschel)
DIMENSION: 16
EDGE_WEIGHT_TYPE: EUC_2D
NODE_COORD_SECTION
1 55.0 75.0
2 95.0 85.0
3 34.0 75.0
4 11.0 68.0
5 90.0 10.0
6 70.0 66.0
7 85.0 63.0
8 52.0 10.0
9 14.0 30.0
10 65.0 11.0
11 20.0 62.0 
12 1.0 58.0
13 99.0 20.0
14 15.0 5.0
15 84.0 68.0
16 72.0 37.0
EOF

